param n := 3;

param scale := 100;

set S := "S2C" "S2CPro";

param I :=
"S2C" 0.305891
"S2CPro" 0.755891;

param MC := 
"S2C" 28.45
"S2CPro" 34.31;

param RMAX :=
"S2C" 1200
"S2CPro" 3200;

param X :=
1 1
2 1
3 100;

param Y := 
1 3
2 2
3 120;